p cnf 20 15
-19 -6 7 -18 9 0
3 -4 -17 -12 19 0
-20 -2 15 19 16 0
1 -11 20 -8 18 0
-18 -11 1 9 20 0
12 9 -5 -19 15 0
16 20 -7 -13 -12 0
-6 1 -12 -5 16 0
2 -5 17 14 -12 0
16 -5 -11 14 -4 0
7 -6 -11 -15 10 0
-3 -14 -12 6 -11 0
-7 -15 13 -20 -9 0
-13 4 6 -8 -18 0
-5 2 13 14 -4 0
